; Options: -in -smt2
(set-option :produce-unsat-assumptions true)

(declare-fun start!115450 () Bool)

(assert start!115450)

(declare-fun b!1364694 () Bool)

(declare-fun res!908393 () Bool)

(declare-fun e!774021 () Bool)

(assert (=> b!1364694 (=> (not res!908393) (not e!774021))))

(declare-datatypes ((List!32019 0))(
  ( (Nil!32016) (Cons!32015 (h!33224 (_ BitVec 64)) (t!46720 List!32019)) )
))
(declare-fun newAcc!98 () List!32019)

(declare-fun contains!9557 (List!32019 (_ BitVec 64)) Bool)

(assert (=> b!1364694 (= res!908393 (not (contains!9557 newAcc!98 #b1000000000000000000000000000000000000000000000000000000000000000)))))

(declare-fun b!1364695 () Bool)

(assert (=> b!1364695 (= e!774021 false)))

(declare-fun b!1364696 () Bool)

(declare-fun res!908392 () Bool)

(assert (=> b!1364696 (=> (not res!908392) (not e!774021))))

(declare-fun acc!866 () List!32019)

(assert (=> b!1364696 (= res!908392 (not (contains!9557 acc!866 #b1000000000000000000000000000000000000000000000000000000000000000)))))

(declare-fun b!1364697 () Bool)

(declare-fun res!908391 () Bool)

(assert (=> b!1364697 (=> (not res!908391) (not e!774021))))

(declare-fun noDuplicate!2436 (List!32019) Bool)

(assert (=> b!1364697 (= res!908391 (noDuplicate!2436 acc!866))))

(declare-fun res!908394 () Bool)

(assert (=> start!115450 (=> (not res!908394) (not e!774021))))

(declare-datatypes ((array!92694 0))(
  ( (array!92695 (arr!44771 (Array (_ BitVec 32) (_ BitVec 64))) (size!45322 (_ BitVec 32))) )
))
(declare-fun a!3861 () array!92694)

(declare-fun from!3239 () (_ BitVec 32))

(assert (=> start!115450 (= res!908394 (and (bvslt (size!45322 a!3861) #b01111111111111111111111111111111) (bvsge from!3239 #b00000000000000000000000000000000) (bvsle from!3239 (size!45322 a!3861))))))

(assert (=> start!115450 e!774021))

(declare-fun array_inv!33716 (array!92694) Bool)

(assert (=> start!115450 (array_inv!33716 a!3861)))

(assert (=> start!115450 true))

(declare-fun b!1364698 () Bool)

(declare-fun res!908390 () Bool)

(assert (=> b!1364698 (=> (not res!908390) (not e!774021))))

(assert (=> b!1364698 (= res!908390 (not (contains!9557 acc!866 #b0000000000000000000000000000000000000000000000000000000000000000)))))

(declare-fun b!1364699 () Bool)

(declare-fun res!908389 () Bool)

(assert (=> b!1364699 (=> (not res!908389) (not e!774021))))

(assert (=> b!1364699 (= res!908389 (not (contains!9557 newAcc!98 #b0000000000000000000000000000000000000000000000000000000000000000)))))

(assert (= (and start!115450 res!908394) b!1364697))

(assert (= (and b!1364697 res!908391) b!1364698))

(assert (= (and b!1364698 res!908390) b!1364696))

(assert (= (and b!1364696 res!908392) b!1364699))

(assert (= (and b!1364699 res!908389) b!1364694))

(assert (= (and b!1364694 res!908393) b!1364695))

(declare-fun m!1249465 () Bool)

(assert (=> b!1364698 m!1249465))

(declare-fun m!1249467 () Bool)

(assert (=> b!1364696 m!1249467))

(declare-fun m!1249469 () Bool)

(assert (=> b!1364694 m!1249469))

(declare-fun m!1249471 () Bool)

(assert (=> b!1364699 m!1249471))

(declare-fun m!1249473 () Bool)

(assert (=> b!1364697 m!1249473))

(declare-fun m!1249475 () Bool)

(assert (=> start!115450 m!1249475))

(check-sat (not b!1364699) (not b!1364698) (not start!115450) (not b!1364697) (not b!1364694) (not b!1364696))
(check-sat)
